c "random instance"
p edges 150 2284
e 1 2
e 1 11
e 1 17
e 1 19
e 1 33
e 1 43
e 1 47
e 1 48
e 1 53
e 1 55
e 1 59
e 1 64
e 1 65
e 1 68
e 1 69
e 1 70
e 1 71
e 1 74
e 1 75
e 1 84
e 1 86
e 1 89
e 1 96
e 1 97
e 1 102
e 1 108
e 1 114
e 1 116
e 1 121
e 1 123
e 1 125
e 1 131
e 1 137
e 1 138
e 1 140
e 1 143
e 1 144
e 1 147
e 1 149
e 2 6
e 2 7
e 2 8
e 2 9
e 2 12
e 2 13
e 2 22
e 2 26
e 2 35
e 2 47
e 2 53
e 2 57
e 2 66
e 2 68
e 2 70
e 2 72
e 2 77
e 2 84
e 2 87
e 2 88
e 2 95
e 2 96
e 2 98
e 2 99
e 2 105
e 2 110
e 2 111
e 2 113
e 2 122
e 2 123
e 2 124
e 2 125
e 2 135
e 2 137
e 2 141
e 2 142
e 3 8
e 3 14
e 3 15
e 3 21
e 3 34
e 3 40
e 3 43
e 3 50
e 3 53
e 3 56
e 3 60
e 3 65
e 3 72
e 3 74
e 3 75
e 3 77
e 3 82
e 3 93
e 3 96
e 3 103
e 3 104
e 3 105
e 3 106
e 3 109
e 3 116
e 3 118
e 3 120
e 3 123
e 3 125
e 3 127
e 3 132
e 3 135
e 3 142
e 3 143
e 3 147
e 4 5
e 4 10
e 4 12
e 4 16
e 4 18
e 4 21
e 4 27
e 4 49
e 4 50
e 4 53
e 4 57
e 4 68
e 4 72
e 4 74
e 4 78
e 4 80
e 4 83
e 4 86
e 4 87
e 4 89
e 4 98
e 4 100
e 4 102
e 4 103
e 4 106
e 4 123
e 4 127
e 4 128
e 4 130
e 4 131
e 4 133
e 4 134
e 4 139
e 4 144
e 4 148
e 5 10
e 5 21
e 5 25
e 5 30
e 5 38
e 5 41
e 5 46
e 5 47
e 5 49
e 5 53
e 5 59
e 5 62
e 5 67
e 5 72
e 5 90
e 5 91
e 5 104
e 5 107
e 5 108
e 5 110
e 5 116
e 5 118
e 5 125
e 5 132
e 5 134
e 5 135
e 5 140
e 5 147
e 6 11
e 6 12
e 6 16
e 6 18
e 6 19
e 6 25
e 6 33
e 6 36
e 6 39
e 6 42
e 6 46
e 6 52
e 6 53
e 6 58
e 6 62
e 6 65
e 6 66
e 6 68
e 6 75
e 6 77
e 6 96
e 6 114
e 6 115
e 6 117
e 6 119
e 6 121
e 6 131
e 6 140
e 6 143
e 6 144
e 6 146
e 7 9
e 7 12
e 7 15
e 7 16
e 7 17
e 7 41
e 7 49
e 7 54
e 7 64
e 7 67
e 7 69
e 7 70
e 7 73
e 7 76
e 7 90
e 7 94
e 7 100
e 7 114
e 7 119
e 7 123
e 7 130
e 8 9
e 8 16
e 8 17
e 8 20
e 8 34
e 8 36
e 8 44
e 8 47
e 8 54
e 8 58
e 8 68
e 8 70
e 8 75
e 8 86
e 8 90
e 8 107
e 8 119
e 8 120
e 8 121
e 8 122
e 8 126
e 8 131
e 8 135
e 8 136
e 8 146
e 8 148
e 8 150
e 9 19
e 9 22
e 9 25
e 9 26
e 9 29
e 9 31
e 9 34
e 9 39
e 9 43
e 9 54
e 9 56
e 9 57
e 9 60
e 9 62
e 9 76
e 9 78
e 9 82
e 9 88
e 9 90
e 9 93
e 9 99
e 9 108
e 9 112
e 9 115
e 9 119
e 9 136
e 9 137
e 9 139
e 9 150
e 10 16
e 10 21
e 10 24
e 10 29
e 10 30
e 10 33
e 10 39
e 10 47
e 10 48
e 10 56
e 10 58
e 10 60
e 10 61
e 10 65
e 10 67
e 10 82
e 10 87
e 10 90
e 10 93
e 10 110
e 10 112
e 10 130
e 10 133
e 10 136
e 10 144
e 10 146
e 11 12
e 11 29
e 11 30
e 11 31
e 11 36
e 11 37
e 11 38
e 11 46
e 11 49
e 11 50
e 11 52
e 11 55
e 11 58
e 11 63
e 11 70
e 11 78
e 11 81
e 11 83
e 11 89
e 11 92
e 11 93
e 11 94
e 11 96
e 11 107
e 11 108
e 11 117
e 11 118
e 11 123
e 11 128
e 11 131
e 11 137
e 11 138
e 11 139
e 11 144
e 11 147
e 11 148
e 12 20
e 12 27
e 12 36
e 12 37
e 12 38
e 12 42
e 12 54
e 12 58
e 12 59
e 12 74
e 12 79
e 12 90
e 12 93
e 12 94
e 12 95
e 12 110
e 12 116
e 12 122
e 12 126
e 12 128
e 12 129
e 12 132
e 12 134
e 12 139
e 12 141
e 12 145
e 12 148
e 13 20
e 13 24
e 13 28
e 13 32
e 13 34
e 13 40
e 13 45
e 13 52
e 13 57
e 13 60
e 13 61
e 13 69
e 13 75
e 13 81
e 13 83
e 13 87
e 13 91
e 13 92
e 13 106
e 13 121
e 13 126
e 13 127
e 13 129
e 13 132
e 13 138
e 13 140
e 13 149
e 14 20
e 14 21
e 14 22
e 14 24
e 14 28
e 14 35
e 14 40
e 14 43
e 14 44
e 14 45
e 14 50
e 14 55
e 14 66
e 14 75
e 14 83
e 14 87
e 14 89
e 14 91
e 14 93
e 14 103
e 14 106
e 14 120
e 14 123
e 14 129
e 14 133
e 14 140
e 14 147
e 14 149
e 15 17
e 15 18
e 15 19
e 15 21
e 15 25
e 15 29
e 15 30
e 15 40
e 15 43
e 15 44
e 15 54
e 15 57
e 15 61
e 15 62
e 15 63
e 15 64
e 15 70
e 15 71
e 15 72
e 15 84
e 15 87
e 15 88
e 15 91
e 15 92
e 15 99
e 15 112
e 15 113
e 15 119
e 15 121
e 15 124
e 15 130
e 15 134
e 15 135
e 15 137
e 15 140
e 15 142
e 15 143
e 15 149
e 16 17
e 16 32
e 16 35
e 16 37
e 16 51
e 16 54
e 16 58
e 16 61
e 16 62
e 16 67
e 16 69
e 16 70
e 16 80
e 16 83
e 16 84
e 16 95
e 16 98
e 16 102
e 16 104
e 16 107
e 16 111
e 16 127
e 16 136
e 16 137
e 16 145
e 16 146
e 16 149
e 17 19
e 17 24
e 17 26
e 17 30
e 17 41
e 17 54
e 17 76
e 17 77
e 17 106
e 17 108
e 17 112
e 17 113
e 17 124
e 17 129
e 17 130
e 17 144
e 18 25
e 18 32
e 18 41
e 18 45
e 18 46
e 18 49
e 18 53
e 18 55
e 18 58
e 18 59
e 18 65
e 18 67
e 18 72
e 18 89
e 18 96
e 18 114
e 18 120
e 18 122
e 18 135
e 18 143
e 18 144
e 19 26
e 19 29
e 19 49
e 19 52
e 19 74
e 19 77
e 19 89
e 19 90
e 19 91
e 19 95
e 19 103
e 19 106
e 19 107
e 19 110
e 19 113
e 19 116
e 19 121
e 19 137
e 19 138
e 19 139
e 19 142
e 19 146
e 20 22
e 20 28
e 20 39
e 20 42
e 20 56
e 20 62
e 20 66
e 20 70
e 20 71
e 20 72
e 20 76
e 20 101
e 20 104
e 20 112
e 20 117
e 20 127
e 20 129
e 20 132
e 20 136
e 20 139
e 20 148
e 20 149
e 20 150
e 21 26
e 21 29
e 21 35
e 21 43
e 21 44
e 21 46
e 21 47
e 21 50
e 21 53
e 21 59
e 21 60
e 21 61
e 21 64
e 21 69
e 21 75
e 21 78
e 21 85
e 21 89
e 21 94
e 21 107
e 21 108
e 21 111
e 21 115
e 21 119
e 21 121
e 21 124
e 21 127
e 21 128
e 21 134
e 21 135
e 21 146
e 21 148
e 21 150
e 22 35
e 22 38
e 22 47
e 22 48
e 22 53
e 22 59
e 22 60
e 22 65
e 22 90
e 22 96
e 22 97
e 22 101
e 22 105
e 22 117
e 22 118
e 22 123
e 22 124
e 22 132
e 22 137
e 22 144
e 22 149
e 23 33
e 23 34
e 23 37
e 23 43
e 23 46
e 23 48
e 23 50
e 23 53
e 23 55
e 23 57
e 23 71
e 23 75
e 23 78
e 23 86
e 23 89
e 23 90
e 23 94
e 23 96
e 23 98
e 23 101
e 23 103
e 23 113
e 23 114
e 23 117
e 23 120
e 23 135
e 23 140
e 23 142
e 23 143
e 23 146
e 23 147
e 24 28
e 24 29
e 24 33
e 24 38
e 24 44
e 24 54
e 24 55
e 24 58
e 24 59
e 24 77
e 24 78
e 24 81
e 24 92
e 24 103
e 24 116
e 24 118
e 24 122
e 24 127
e 24 128
e 24 139
e 24 147
e 25 27
e 25 31
e 25 37
e 25 38
e 25 40
e 25 42
e 25 45
e 25 47
e 25 49
e 25 52
e 25 55
e 25 57
e 25 62
e 25 66
e 25 73
e 25 75
e 25 84
e 25 90
e 25 97
e 25 102
e 25 106
e 25 109
e 25 110
e 25 111
e 25 112
e 25 115
e 25 124
e 25 125
e 25 126
e 25 135
e 25 136
e 25 137
e 25 141
e 25 146
e 26 30
e 26 35
e 26 38
e 26 41
e 26 46
e 26 52
e 26 58
e 26 59
e 26 60
e 26 66
e 26 67
e 26 69
e 26 73
e 26 81
e 26 84
e 26 89
e 26 91
e 26 93
e 26 96
e 26 99
e 26 106
e 26 109
e 26 111
e 26 112
e 26 117
e 26 119
e 26 130
e 26 133
e 26 139
e 26 144
e 26 148
e 26 150
e 27 30
e 27 31
e 27 33
e 27 37
e 27 56
e 27 58
e 27 59
e 27 60
e 27 68
e 27 76
e 27 83
e 27 85
e 27 89
e 27 91
e 27 92
e 27 94
e 27 95
e 27 96
e 27 99
e 27 122
e 27 125
e 27 127
e 27 130
e 27 143
e 27 148
e 28 31
e 28 32
e 28 33
e 28 37
e 28 38
e 28 41
e 28 45
e 28 55
e 28 61
e 28 68
e 28 73
e 28 75
e 28 82
e 28 86
e 28 95
e 28 100
e 28 101
e 28 102
e 28 122
e 28 123
e 28 150
e 29 32
e 29 33
e 29 38
e 29 43
e 29 46
e 29 49
e 29 58
e 29 59
e 29 61
e 29 70
e 29 71
e 29 73
e 29 74
e 29 84
e 29 86
e 29 89
e 29 102
e 29 103
e 29 110
e 29 116
e 29 121
e 29 122
e 29 123
e 29 124
e 29 126
e 29 130
e 29 140
e 29 141
e 29 144
e 29 145
e 29 149
e 30 32
e 30 38
e 30 43
e 30 64
e 30 65
e 30 66
e 30 67
e 30 68
e 30 70
e 30 71
e 30 72
e 30 78
e 30 86
e 30 87
e 30 90
e 30 92
e 30 101
e 30 102
e 30 104
e 30 107
e 30 113
e 30 120
e 30 122
e 30 124
e 30 128
e 30 134
e 30 137
e 30 142
e 30 145
e 31 49
e 31 52
e 31 53
e 31 57
e 31 58
e 31 65
e 31 86
e 31 92
e 31 95
e 31 110
e 31 115
e 31 116
e 31 117
e 31 118
e 31 125
e 31 135
e 31 137
e 31 141
e 31 145
e 31 147
e 31 149
e 32 33
e 32 37
e 32 40
e 32 41
e 32 45
e 32 53
e 32 56
e 32 62
e 32 70
e 32 76
e 32 81
e 32 83
e 32 84
e 32 108
e 32 109
e 32 124
e 32 130
e 32 139
e 32 143
e 32 144
e 32 147
e 33 38
e 33 41
e 33 46
e 33 52
e 33 57
e 33 59
e 33 63
e 33 64
e 33 67
e 33 74
e 33 76
e 33 80
e 33 82
e 33 89
e 33 90
e 33 95
e 33 101
e 33 105
e 33 117
e 33 122
e 33 123
e 33 127
e 33 128
e 33 135
e 33 142
e 33 144
e 33 145
e 33 149
e 34 38
e 34 45
e 34 47
e 34 49
e 34 56
e 34 74
e 34 75
e 34 78
e 34 79
e 34 88
e 34 89
e 34 90
e 34 93
e 34 96
e 34 101
e 34 104
e 34 105
e 34 114
e 34 127
e 34 129
e 34 134
e 34 136
e 34 144
e 34 148
e 35 38
e 35 41
e 35 57
e 35 68
e 35 71
e 35 72
e 35 73
e 35 78
e 35 82
e 35 84
e 35 86
e 35 89
e 35 102
e 35 103
e 35 112
e 35 115
e 35 117
e 35 119
e 35 122
e 35 124
e 35 126
e 35 128
e 35 129
e 35 135
e 35 145
e 36 39
e 36 42
e 36 47
e 36 52
e 36 55
e 36 57
e 36 72
e 36 73
e 36 74
e 36 77
e 36 78
e 36 80
e 36 84
e 36 87
e 36 89
e 36 90
e 36 97
e 36 101
e 36 103
e 36 104
e 36 108
e 36 117
e 36 118
e 36 121
e 36 128
e 36 134
e 36 138
e 36 144
e 36 148
e 37 40
e 37 44
e 37 47
e 37 48
e 37 55
e 37 61
e 37 63
e 37 65
e 37 66
e 37 67
e 37 72
e 37 73
e 37 75
e 37 81
e 37 82
e 37 92
e 37 96
e 37 104
e 37 107
e 37 120
e 37 121
e 37 123
e 37 127
e 37 142
e 37 143
e 37 148
e 38 54
e 38 61
e 38 63
e 38 73
e 38 74
e 38 78
e 38 97
e 38 99
e 38 103
e 38 111
e 38 121
e 38 140
e 38 148
e 39 45
e 39 48
e 39 56
e 39 58
e 39 63
e 39 65
e 39 66
e 39 73
e 39 82
e 39 85
e 39 86
e 39 87
e 39 89
e 39 90
e 39 94
e 39 105
e 39 106
e 39 110
e 39 113
e 39 117
e 39 122
e 39 126
e 39 127
e 39 128
e 39 133
e 39 138
e 39 139
e 39 140
e 39 145
e 40 41
e 40 50
e 40 57
e 40 58
e 40 69
e 40 70
e 40 71
e 40 92
e 40 106
e 40 112
e 40 113
e 40 115
e 40 129
e 40 130
e 40 141
e 40 146
e 41 46
e 41 52
e 41 60
e 41 73
e 41 76
e 41 78
e 41 82
e 41 93
e 41 97
e 41 104
e 41 112
e 41 116
e 41 120
e 41 124
e 41 125
e 41 126
e 41 144
e 42 60
e 42 62
e 42 66
e 42 68
e 42 72
e 42 74
e 42 76
e 42 77
e 42 80
e 42 81
e 42 84
e 42 91
e 42 99
e 42 101
e 42 104
e 42 109
e 42 111
e 42 114
e 42 128
e 42 130
e 42 143
e 42 145
e 43 51
e 43 52
e 43 53
e 43 54
e 43 56
e 43 58
e 43 62
e 43 63
e 43 81
e 43 82
e 43 84
e 43 92
e 43 95
e 43 98
e 43 100
e 43 108
e 43 112
e 43 113
e 43 114
e 43 119
e 44 50
e 44 60
e 44 67
e 44 70
e 44 74
e 44 76
e 44 95
e 44 99
e 44 113
e 44 121
e 44 127
e 44 128
e 44 132
e 44 140
e 44 141
e 44 143
e 44 145
e 44 150
e 45 48
e 45 62
e 45 68
e 45 70
e 45 75
e 45 78
e 45 79
e 45 83
e 45 88
e 45 90
e 45 91
e 45 93
e 45 97
e 45 104
e 45 105
e 45 116
e 45 121
e 45 123
e 45 131
e 45 147
e 45 148
e 46 48
e 46 49
e 46 51
e 46 57
e 46 60
e 46 61
e 46 74
e 46 78
e 46 82
e 46 87
e 46 94
e 46 105
e 46 117
e 46 118
e 46 123
e 46 133
e 46 134
e 46 135
e 46 136
e 46 145
e 47 49
e 47 54
e 47 60
e 47 66
e 47 71
e 47 79
e 47 81
e 47 86
e 47 114
e 47 125
e 47 133
e 47 139
e 47 140
e 47 141
e 47 143
e 47 147
e 47 149
e 48 55
e 48 60
e 48 80
e 48 81
e 48 83
e 48 102
e 48 108
e 48 109
e 48 110
e 48 113
e 48 114
e 48 116
e 48 130
e 48 132
e 48 133
e 48 144
e 48 149
e 49 52
e 49 63
e 49 67
e 49 68
e 49 77
e 49 79
e 49 95
e 49 98
e 49 99
e 49 103
e 49 116
e 49 118
e 49 124
e 49 127
e 49 130
e 49 137
e 49 138
e 49 140
e 49 147
e 49 148
e 50 83
e 50 84
e 50 100
e 50 102
e 50 105
e 50 106
e 50 112
e 50 121
e 50 130
e 50 136
e 50 138
e 50 148
e 50 150
e 51 52
e 51 54
e 51 57
e 51 58
e 51 61
e 51 67
e 51 70
e 51 72
e 51 73
e 51 82
e 51 83
e 51 89
e 51 106
e 51 112
e 51 114
e 51 119
e 51 122
e 51 123
e 51 124
e 51 125
e 51 126
e 51 132
e 51 133
e 51 135
e 51 141
e 52 55
e 52 57
e 52 58
e 52 61
e 52 63
e 52 68
e 52 80
e 52 88
e 52 93
e 52 94
e 52 115
e 52 116
e 52 118
e 52 124
e 52 130
e 52 133
e 52 148
e 53 54
e 53 60
e 53 66
e 53 70
e 53 81
e 53 82
e 53 91
e 53 95
e 53 107
e 53 108
e 53 110
e 53 120
e 53 130
e 53 135
e 53 137
e 53 140
e 53 141
e 53 145
e 54 75
e 54 78
e 54 84
e 54 85
e 54 94
e 54 98
e 54 101
e 54 114
e 54 117
e 54 121
e 54 129
e 54 137
e 54 138
e 55 63
e 55 69
e 55 70
e 55 73
e 55 75
e 55 79
e 55 80
e 55 88
e 55 98
e 55 107
e 55 113
e 55 115
e 55 124
e 55 125
e 55 128
e 55 133
e 55 135
e 55 139
e 55 146
e 55 147
e 56 57
e 56 62
e 56 66
e 56 67
e 56 69
e 56 72
e 56 73
e 56 77
e 56 83
e 56 97
e 56 105
e 56 108
e 56 117
e 56 118
e 56 120
e 56 122
e 56 137
e 56 144
e 56 150
e 57 59
e 57 63
e 57 67
e 57 68
e 57 70
e 57 72
e 57 74
e 57 75
e 57 76
e 57 87
e 57 93
e 57 113
e 57 140
e 57 141
e 57 143
e 57 145
e 57 146
e 58 64
e 58 69
e 58 90
e 58 95
e 58 100
e 58 102
e 58 107
e 58 108
e 58 114
e 58 118
e 58 121
e 58 127
e 58 135
e 58 138
e 58 145
e 59 65
e 59 66
e 59 72
e 59 81
e 59 96
e 59 97
e 59 115
e 59 126
e 59 132
e 59 137
e 59 143
e 59 146
e 60 67
e 60 68
e 60 69
e 60 73
e 60 75
e 60 76
e 60 77
e 60 83
e 60 85
e 60 89
e 60 96
e 60 98
e 60 100
e 60 103
e 60 106
e 60 107
e 60 109
e 60 110
e 60 113
e 60 125
e 60 128
e 60 136
e 60 137
e 60 139
e 60 142
e 60 143
e 60 147
e 60 148
e 60 149
e 60 150
e 61 66
e 61 71
e 61 78
e 61 93
e 61 94
e 61 95
e 61 98
e 61 103
e 61 109
e 61 113
e 61 121
e 61 135
e 61 138
e 61 140
e 62 66
e 62 73
e 62 83
e 62 91
e 62 93
e 62 96
e 62 97
e 62 99
e 62 101
e 62 102
e 62 103
e 62 105
e 62 106
e 62 112
e 62 118
e 62 121
e 62 124
e 62 128
e 62 132
e 62 135
e 62 137
e 62 144
e 63 64
e 63 67
e 63 68
e 63 79
e 63 87
e 63 97
e 63 98
e 63 99
e 63 111
e 63 117
e 63 119
e 63 120
e 63 125
e 63 126
e 63 130
e 63 132
e 63 135
e 63 140
e 63 149
e 63 150
e 64 70
e 64 83
e 64 94
e 64 98
e 64 101
e 64 110
e 64 111
e 64 118
e 64 124
e 64 128
e 64 130
e 64 136
e 64 146
e 64 149
e 65 68
e 65 75
e 65 79
e 65 83
e 65 87
e 65 89
e 65 94
e 65 100
e 65 101
e 65 116
e 65 117
e 65 119
e 65 121
e 65 124
e 65 135
e 65 145
e 66 73
e 66 74
e 66 78
e 66 82
e 66 91
e 66 93
e 66 95
e 66 96
e 66 97
e 66 99
e 66 116
e 66 121
e 66 122
e 66 124
e 66 126
e 66 127
e 66 129
e 66 131
e 66 134
e 66 136
e 66 146
e 67 70
e 67 76
e 67 81
e 67 83
e 67 93
e 67 99
e 67 102
e 67 103
e 67 110
e 67 113
e 67 115
e 67 117
e 67 120
e 67 122
e 67 129
e 67 134
e 67 139
e 67 148
e 68 70
e 68 77
e 68 80
e 68 87
e 68 89
e 68 91
e 68 93
e 68 97
e 68 98
e 68 112
e 68 118
e 68 133
e 68 138
e 68 139
e 68 147
e 68 149
e 68 150
e 69 70
e 69 71
e 69 73
e 69 76
e 69 78
e 69 79
e 69 81
e 69 82
e 69 83
e 69 85
e 69 87
e 69 93
e 69 94
e 69 99
e 69 100
e 69 103
e 69 104
e 69 111
e 69 113
e 69 119
e 69 134
e 69 139
e 69 140
e 69 143
e 69 144
e 69 150
e 70 76
e 70 77
e 70 79
e 70 84
e 70 91
e 70 92
e 70 93
e 70 96
e 70 100
e 70 103
e 70 105
e 70 106
e 70 108
e 70 117
e 70 120
e 70 125
e 70 128
e 70 137
e 71 74
e 71 82
e 71 83
e 71 89
e 71 92
e 71 95
e 71 100
e 71 105
e 71 109
e 71 112
e 71 113
e 71 115
e 71 119
e 71 123
e 71 138
e 71 142
e 71 146
e 72 73
e 72 75
e 72 78
e 72 83
e 72 86
e 72 87
e 72 89
e 72 90
e 72 92
e 72 96
e 72 101
e 72 102
e 72 108
e 72 113
e 72 114
e 72 132
e 72 137
e 72 142
e 72 149
e 73 74
e 73 79
e 73 81
e 73 86
e 73 89
e 73 90
e 73 91
e 73 92
e 73 99
e 73 105
e 73 113
e 73 126
e 73 127
e 73 143
e 74 76
e 74 77
e 74 81
e 74 83
e 74 89
e 74 94
e 74 95
e 74 110
e 74 113
e 74 115
e 74 124
e 74 137
e 74 141
e 75 76
e 75 79
e 75 91
e 75 103
e 75 105
e 75 119
e 75 121
e 75 132
e 75 145
e 75 149
e 76 81
e 76 86
e 76 92
e 76 98
e 76 102
e 76 121
e 76 125
e 76 137
e 76 143
e 76 147
e 76 150
e 77 78
e 77 79
e 77 85
e 77 91
e 77 92
e 77 98
e 77 100
e 77 107
e 77 112
e 77 119
e 77 122
e 77 124
e 77 130
e 77 142
e 77 150
e 78 86
e 78 102
e 78 111
e 78 113
e 78 118
e 78 119
e 78 122
e 78 131
e 78 139
e 78 144
e 78 146
e 79 93
e 79 95
e 79 99
e 79 108
e 79 111
e 79 112
e 79 113
e 79 116
e 79 119
e 79 121
e 79 123
e 79 124
e 79 134
e 79 137
e 79 140
e 79 141
e 80 81
e 80 82
e 80 88
e 80 90
e 80 97
e 80 116
e 80 120
e 80 124
e 80 126
e 80 135
e 80 148
e 81 88
e 81 107
e 81 111
e 81 114
e 81 119
e 81 128
e 81 132
e 81 133
e 81 138
e 81 139
e 81 142
e 81 145
e 81 147
e 82 92
e 82 105
e 82 110
e 82 112
e 82 119
e 82 124
e 82 126
e 82 128
e 82 130
e 82 131
e 82 134
e 82 136
e 82 137
e 82 139
e 82 140
e 82 148
e 82 150
e 83 86
e 83 87
e 83 89
e 83 90
e 83 100
e 83 107
e 83 115
e 83 117
e 83 121
e 83 122
e 83 123
e 83 127
e 83 128
e 83 132
e 83 141
e 84 96
e 84 100
e 84 101
e 84 102
e 84 104
e 84 106
e 84 111
e 84 113
e 84 117
e 84 120
e 84 122
e 84 123
e 84 127
e 84 146
e 84 147
e 84 149
e 85 86
e 85 98
e 85 99
e 85 101
e 85 106
e 85 114
e 85 116
e 85 123
e 85 135
e 85 138
e 85 139
e 86 90
e 86 95
e 86 96
e 86 97
e 86 102
e 86 103
e 86 105
e 86 107
e 86 114
e 86 122
e 86 126
e 86 131
e 86 134
e 86 135
e 86 136
e 86 139
e 86 143
e 86 149
e 87 91
e 87 98
e 87 103
e 87 106
e 87 107
e 87 117
e 87 136
e 87 137
e 87 144
e 87 148
e 87 149
e 88 90
e 88 96
e 88 97
e 88 103
e 88 107
e 88 111
e 88 113
e 88 128
e 88 133
e 88 135
e 88 137
e 88 140
e 88 141
e 89 92
e 89 95
e 89 100
e 89 102
e 89 105
e 89 111
e 89 117
e 89 128
e 89 131
e 89 134
e 89 136
e 89 141
e 89 142
e 89 149
e 90 93
e 90 95
e 90 98
e 90 103
e 90 105
e 90 108
e 90 109
e 90 110
e 90 111
e 90 113
e 90 115
e 90 120
e 90 131
e 90 133
e 90 136
e 90 139
e 90 149
e 91 102
e 91 104
e 91 105
e 91 111
e 91 115
e 91 116
e 91 126
e 91 127
e 91 128
e 91 134
e 91 135
e 91 139
e 91 143
e 92 97
e 92 99
e 92 104
e 92 105
e 92 107
e 92 109
e 92 112
e 92 122
e 92 123
e 92 132
e 92 144
e 92 147
e 92 150
e 93 102
e 93 103
e 93 104
e 93 107
e 93 112
e 93 114
e 93 116
e 93 117
e 93 120
e 93 122
e 93 123
e 93 126
e 93 135
e 93 138
e 93 143
e 93 144
e 93 146
e 94 99
e 94 102
e 94 126
e 94 134
e 94 136
e 94 150
e 95 98
e 95 101
e 95 108
e 95 125
e 95 128
e 95 131
e 95 143
e 95 148
e 96 103
e 96 107
e 96 111
e 96 120
e 96 122
e 96 128
e 96 133
e 96 139
e 96 144
e 97 106
e 97 113
e 97 116
e 97 120
e 97 121
e 97 124
e 97 128
e 97 131
e 97 141
e 97 142
e 97 144
e 97 146
e 97 147
e 97 148
e 98 100
e 98 102
e 98 108
e 98 111
e 98 112
e 98 118
e 98 121
e 98 125
e 98 127
e 98 129
e 98 138
e 98 144
e 98 146
e 98 148
e 99 103
e 99 107
e 99 111
e 99 113
e 99 114
e 99 119
e 99 120
e 99 122
e 99 132
e 99 133
e 99 147
e 100 101
e 100 103
e 100 109
e 100 111
e 100 114
e 100 115
e 100 117
e 100 123
e 100 124
e 100 138
e 100 146
e 101 104
e 101 109
e 101 114
e 101 119
e 101 124
e 101 125
e 101 126
e 101 140
e 101 142
e 101 150
e 102 107
e 102 108
e 102 116
e 102 117
e 102 124
e 102 130
e 102 132
e 102 138
e 102 139
e 102 144
e 103 112
e 103 119
e 103 124
e 103 126
e 103 128
e 103 130
e 103 136
e 103 150
e 104 105
e 104 111
e 104 116
e 104 118
e 104 119
e 104 129
e 104 134
e 104 136
e 104 143
e 104 145
e 104 150
e 105 108
e 105 111
e 105 131
e 105 138
e 105 140
e 105 142
e 105 144
e 105 147
e 105 150
e 106 112
e 106 119
e 106 120
e 106 124
e 106 128
e 106 130
e 106 131
e 106 132
e 107 112
e 107 115
e 107 116
e 107 123
e 107 134
e 107 135
e 107 145
e 108 116
e 108 121
e 108 134
e 108 135
e 108 136
e 108 138
e 108 146
e 108 148
e 109 132
e 109 133
e 109 135
e 109 141
e 109 142
e 109 149
e 110 113
e 110 114
e 110 119
e 110 126
e 110 136
e 110 142
e 111 116
e 111 121
e 111 134
e 111 143
e 111 149
e 112 117
e 112 118
e 112 121
e 112 123
e 112 131
e 112 134
e 112 135
e 112 136
e 112 138
e 112 141
e 112 142
e 112 143
e 112 145
e 112 147
e 113 123
e 113 128
e 113 130
e 113 132
e 113 134
e 113 137
e 113 145
e 113 146
e 113 149
e 113 150
e 114 121
e 114 132
e 114 138
e 114 139
e 114 141
e 114 144
e 115 122
e 115 126
e 115 134
e 115 135
e 115 138
e 115 141
e 115 150
e 116 117
e 116 118
e 116 119
e 116 128
e 116 136
e 116 139
e 116 148
e 117 119
e 117 120
e 117 124
e 117 132
e 117 136
e 117 142
e 117 143
e 118 121
e 118 122
e 118 126
e 118 133
e 118 137
e 118 138
e 118 144
e 118 148
e 119 121
e 119 126
e 119 134
e 119 145
e 119 148
e 120 132
e 120 138
e 120 144
e 120 146
e 121 132
e 121 136
e 121 139
e 121 146
e 121 147
e 121 149
e 122 125
e 122 130
e 122 137
e 122 140
e 122 150
e 123 124
e 123 125
e 123 127
e 123 130
e 123 132
e 123 134
e 123 136
e 123 139
e 123 140
e 123 149
e 123 150
e 124 128
e 124 146
e 124 149
e 125 135
e 125 139
e 125 146
e 125 150
e 126 130
e 126 142
e 126 148
e 126 149
e 127 134
e 127 138
e 127 139
e 127 143
e 127 145
e 127 147
e 128 134
e 129 136
e 129 139
e 129 146
e 129 149
e 130 133
e 130 134
e 130 138
e 130 139
e 130 143
e 130 145
e 130 147
e 131 136
e 131 139
e 131 142
e 131 149
e 131 150
e 132 138
e 132 139
e 132 144
e 132 150
e 133 141
e 133 142
e 134 138
e 134 139
e 135 136
e 135 137
e 135 140
e 135 143
e 135 150
e 136 137
e 136 142
e 136 149
e 137 140
e 137 144
e 137 147
e 137 148
e 138 143
e 138 148
e 138 150
e 139 145
e 139 148
e 140 142
e 140 144
e 140 147
e 140 148
e 141 142
e 142 149
e 143 147
e 145 146
e 146 148
e 148 150
